%year names and planning horizon
years = [ 2021, 2022, 2023, 2024, 2025, 2026, 2027, 2028, 2029, 2030, 2031, 2032, 2033, 2034, 2035, 2036, 2037, 2038, 2039, 2040
];

n_y = 20;

n_p = 6;
proj_names = ["Project 1", "Project 2", "Project 3", "Project 4", "Project 5", "Project 6" ];

proj_local_optimal_years = [2030, 2031, 2034, 2027, 2034, 2025];

%arbitrary as part of the model instance
budget_constraint = 50;

% net economic benefit, cumulative sum of ( risk - project deferral benefit)
cumul_net_benefit = [|
%Project 1, local optimal delivery year 2030
892, 1760, 2612, 3447, 4264, 5060, 5833, 6579, 7293, 3126, -2082, -8489, -16235, -25322, -35751, -47523, -60639, -75101, -90910, -108068,
%Project 2, local optimal delivery year 2031
|736, 1413, 1991, 2491, 2923, 3348, 3706, 3980, 4131, 4105, 3846, 3325, 2551, 1522, 234, -1316, -3131, -5215, -7571, -7625,
%Project 3, local optimal delivery year 2034
|221, 423, 615, 805, 986, 1093, 1177, 1320, 1444, 1545, 1619, 1662, 1671, 1659, 1620, 1554, 1460, 1339, 1190, 1014,
%Project 4, local optimal delivery year 2027
|271, 518, 720, 875, 974, 1010, 971, 844, 607, 232, -312, -1058, -2037, -3252, -4706, -6400, -8338, -8611, -8939, -9326,
%Project 5, local optimal delivery year 2034
|699, 1411, 2078, 2712, 3308, 3864, 4374, 4831, 5224, 5538, 5758, 5874, 5874, 5758, 5525, 5174, 4705, 5387, 6056, 6711,
%Project 6, local optimal delivery year 2025
|320, 558, 688, 719, 634, 424, 73, -441, -1155, -2117, -3371, -4949, -6876, -7416, -8087, -8890, -9825, -9222, -8626, -8037,
|];



%NPV Project cost ($m) for each project option vs delivery year, final year cost is 0 - dont do the project
ind_proj_cost = [|
%Project 1, local optimal delivery year 2030
27, 26, 25, 24, 23, 22, 21, 20, 20, 19, 18, 18, 17, 16, 16, 15, 15, 14, 13, 0,
%Project 2, local optimal delivery year 2031
|25, 24, 23, 23, 22, 21, 20, 19, 19, 18, 17, 17, 16, 15, 15, 14, 14, 13, 13, 0,
%Project 3, local optimal delivery year 2034
|6, 6, 6, 5, 5, 5, 5, 5, 5, 4, 4, 4, 4, 4, 4, 3, 3, 3, 3, 0,
%Project 4, local optimal delivery year 2027
|15, 15, 14, 14, 13, 13, 12, 12, 11, 11, 10, 10, 10, 9, 9, 9, 8, 8, 8, 0,
%Project 5, local optimal delivery year 2034
|23, 22, 21, 21, 20, 19, 18, 18, 17, 16, 16, 15, 15, 14, 13, 13, 12, 12, 12, 0,
%Project 6, local optimal delivery year 2025
|19, 18, 17, 16, 16, 15, 15, 14, 14, 13, 13, 12, 12, 11, 11, 10, 10, 10, 9, 0,
|];


